(declare-fun bvlambda_2_ () (_ BitVec 1))
(declare-fun bvlambda_4_ () (_ BitVec 1))
(declare-fun bvlambda_5_ () (_ BitVec 1))
(declare-fun bvlambda_6_ () (_ BitVec 1))
(declare-fun bvlambda_7_ () (_ BitVec 2))
(declare-fun a25 () (Array (_ BitVec 1) (_ BitVec 13)))
(assert
(let (($e1 (_ bv0 1)))
(let (($e7 (_ bv0 8)))
(let (($e10 (_ bv0 12)))
(let (($e26             bvlambda_2_ ))
(let (($e27             (bvnot $e1) ))
(let (($e28                    $e27 ))
(let (($e29        a25                 ))
(let (($e30 (select $e29 $e28)))
(let (($e32                  $e26 ))
(let (($e37 (concat        $e7  bvlambda_4_)))
(let (($e38 (concat $e37 bvlambda_5_)))
(let (($e39 (concat $e38 bvlambda_6_)))
(let (($e40 (concat $e39 bvlambda_7_)))
(let (($e41                          $e40      ))
(let (($e42 (store a25 $e1 $e41)))
(let (($e43 (store $e42 $e32 $e30)))
(let (($e44 (select $e43 (bvnot $e1))))
(let (($e45               $e44               ))
(let (($e57                           #b0 ))
(let (($e59 (concat (bvnot $e10) $e57)))
(let (($e60                   $e59      ))
                 (= $e45 $e60)
                                                                                                                                                                                             )) )           )))))))))    ) )))))       )  )     ))
